     Program PWSCF v.6.4.1 starts on 26Jan2023 at  5:35: 5

     K-points division:     npool     =       2
     band groups division:  nbgrp     =       2
     R & G space division:  proc/nbgrp/npool/nimage =       8
     Reading input from relax.in

     Current dimensions of program PWSCF are:
     Max number of different atomic species (ntypx) = 10
     Max number of k-points (npk) =  40000
     Max angular momentum in pseudopotentials (lmaxx) =  3

     gamma-point specific algorithms are used

     Subspace diagonalization in iterative solution of the eigenvalue problem:
     a serial algorithm will be used

     Message from routine setup:
     DEPRECATED: symmetry with ibrav=0, use correct ibrav instead

     bravais-lattice index     =            0
     lattice parameter (alat)  =      37.9150  a.u.
     unit-cell volume          =   49798.2142 (a.u.)^3
     number of atoms/cell      =          127
     number of atomic types    =            2
     number of electrons       =       508.00 (up: 255.00, down: 253.00)
     number of Kohn-Sham states=          270
     kinetic-energy cutoff     =      60.0000  Ry
     charge density cutoff     =     240.0000  Ry
     convergence threshold     =      1.0E-08
     mixing beta               =       0.7000
     number of iterations used =            8  plain     mixing
     Exchange-correlation      = PBE ( 1  4  3  4 0 0)
     nstep                     =           50

     celldm(1)=  37.915045  celldm(2)=   0.000000  celldm(3)=   0.000000
     celldm(4)=   0.000000  celldm(5)=   0.000000  celldm(6)=   0.000000

     crystal axes: (cart. coord. in units of alat)
               a(1) = (   1.000000   0.000000   0.000000 )
               a(2) = (  -0.500000   0.866025   0.000000 )
               a(3) = (   0.000000   0.000000   1.054990 )

     reciprocal axes: (cart. coord. in units 2 pi/alat)
               b(1) = (  1.000000  0.577350  0.000000 )
               b(2) = (  0.000000  1.154701  0.000000 )
               b(3) = (  0.000000  0.000000  0.947876 )

     PseudoPot. # 1 for B  read from file:
     /home/szhan213/Pseudopotential/pseudo-ONCV-proj/B_ONCV_PBE-1.0.upf
     MD5 check sum: a9fd2462c33df863cd3ce8a66ea40380
     Pseudo is Norm-conserving, Zval =  3.0
     Generated using ONCVPSP code by D. R. Hamann
     Using radial grid of 1534 points,  4 beta functions with:
                l(1) =   0
                l(2) =   0
                l(3) =   1
                l(4) =   1

     PseudoPot. # 2 for N  read from file:
     /home/szhan213/Pseudopotential/pseudo-ONCV-proj/N_ONCV_PBE-1.0.upf
     MD5 check sum: 09890da6b2972017450f7114a6086fad
     Pseudo is Norm-conserving, Zval =  5.0
     Generated using ONCVPSP code by D. R. Hamann
     Using radial grid of 1058 points,  4 beta functions with:
                l(1) =   0
                l(2) =   0
                l(3) =   1
                l(4) =   1

     atomic species   valence    mass     pseudopotential
        B              3.00    10.81100     B ( 1.00)
        N              5.00    14.00674     N ( 1.00)

     Starting magnetic structure
     atomic species   magnetization
        B            0.000
        N            0.000

      4 Sym. Ops. (no inversion) found

                                    s                        frac. trans.

      isym =  1     identity

 cryst.   s( 1) = (     1          0          0      )
                  (     0          1          0      )
                  (     0          0          1      )

 cart.    s( 1) = (  1.0000000  0.0000000  0.0000000 )
                  (  0.0000000  1.0000000  0.0000000 )
                  (  0.0000000  0.0000000  1.0000000 )

      isym =  2     180 deg rotation - cryst. axis [1,-1,0]

[...]

      isym =  3     inv. 180 deg rotation - cart. axis [0,0,1]

[...]

      isym =  4     inv. 180 deg rotation - cryst. axis [1,1,0]

 cryst.   s( 4) = (     0         -1          0      )
                  (    -1          0          0      )
                  (     0          0          1      )

 cart.    s( 4) = (  0.5000000 -0.8660254  0.0000000 )
                  ( -0.8660254 -0.5000000  0.0000000 )
                  (  0.0000000  0.0000000  1.0000000 )

   Cartesian axes

     site n.     atom                  positions (alat units)
         1           N   tau(   1) = (   0.0000005   0.0721685   0.0000000  )
         2           N   tau(   2) = (  -0.0624995   0.1804217   0.0000000  )
         3           N   tau(   3) = (  -0.1249995   0.2886749   0.0000000  )
         4           N   tau(   4) = (  -0.1874995   0.3969280   0.0000000  )
         5           N   tau(   5) = (  -0.2499995   0.5051812   0.0000000  )
         6           N   tau(   6) = (  -0.3124995   0.6134344   0.0000000  )
         7           N   tau(   7) = (  -0.3749995   0.7216876   0.0000000  )
         8           N   tau(   8) = (  -0.4374995   0.8299407   0.0000000  )
         9           N   tau(   9) = (   0.1250005   0.0721685   0.0000000  )
        10           N   tau(  10) = (   0.0625005   0.1804217   0.0000000  )
        11           N   tau(  11) = (   0.0000005   0.2886749   0.0000000  )
        12           N   tau(  12) = (  -0.0624995   0.3969280   0.0000000  )
        13           N   tau(  13) = (  -0.1249995   0.5051812   0.0000000  )
        14           N   tau(  14) = (  -0.1874995   0.6134344   0.0000000  )
        15           N   tau(  15) = (  -0.2499995   0.7216876   0.0000000  )
        16           N   tau(  16) = (  -0.3124995   0.8299407   0.0000000  )
        17           N   tau(  17) = (   0.2500005   0.0721685   0.0000000  )
        18           N   tau(  18) = (   0.1875005   0.1804217   0.0000000  )
        19           N   tau(  19) = (   0.1250005   0.2886749   0.0000000  )
        20           N   tau(  20) = (   0.0625005   0.3969280   0.0000000  )
        21           N   tau(  21) = (   0.0000005   0.5051812   0.0000000  )
        22           N   tau(  22) = (  -0.0624995   0.6134344   0.0000000  )
        23           N   tau(  23) = (  -0.1249995   0.7216876   0.0000000  )
        24           N   tau(  24) = (  -0.1874995   0.8299407   0.0000000  )
        25           N   tau(  25) = (   0.3750005   0.0721685   0.0000000  )
        26           N   tau(  26) = (   0.3125005   0.1804217   0.0000000  )
        27           N   tau(  27) = (   0.2500005   0.2886749   0.0000000  )
        28           N   tau(  28) = (   0.1875005   0.3969280   0.0000000  )
        29           N   tau(  29) = (   0.1250005   0.5051812   0.0000000  )
        30           N   tau(  30) = (   0.0625005   0.6134344   0.0000000  )
        31           N   tau(  31) = (   0.0000005   0.7216876   0.0000000  )
        32           N   tau(  32) = (  -0.0624995   0.8299407   0.0000000  )
        33           N   tau(  33) = (   0.5000005   0.0721685   0.0000000  )
        34           N   tau(  34) = (   0.4375005   0.1804217   0.0000000  )
        35           N   tau(  35) = (   0.3750005   0.2886749   0.0000000  )
        36           N   tau(  36) = (   0.2500005   0.5051812   0.0000000  )
        37           N   tau(  37) = (   0.1875005   0.6134344   0.0000000  )
        38           N   tau(  38) = (   0.1250005   0.7216876   0.0000000  )
        39           N   tau(  39) = (   0.0625005   0.8299407   0.0000000  )
        40           N   tau(  40) = (   0.6250005   0.0721685   0.0000000  )
        41           N   tau(  41) = (   0.5625005   0.1804217   0.0000000  )
        42           N   tau(  42) = (   0.5000005   0.2886749   0.0000000  )
        43           N   tau(  43) = (   0.4375005   0.3969280   0.0000000  )
        44           N   tau(  44) = (   0.3750005   0.5051812   0.0000000  )
        45           N   tau(  45) = (   0.3125005   0.6134344   0.0000000  )
        46           N   tau(  46) = (   0.2500005   0.7216876   0.0000000  )
        47           N   tau(  47) = (   0.1875005   0.8299407   0.0000000  )
        48           N   tau(  48) = (   0.7500005   0.0721685   0.0000000  )
        49           N   tau(  49) = (   0.6875005   0.1804217   0.0000000  )
        50           N   tau(  50) = (   0.6250005   0.2886749   0.0000000  )
        51           N   tau(  51) = (   0.5625005   0.3969280   0.0000000  )
        52           N   tau(  52) = (   0.5000005   0.5051812   0.0000000  )
        53           N   tau(  53) = (   0.4375005   0.6134344   0.0000000  )
        54           N   tau(  54) = (   0.3750005   0.7216876   0.0000000  )
        55           N   tau(  55) = (   0.3125005   0.8299407   0.0000000  )
        56           N   tau(  56) = (   0.8750005   0.0721685   0.0000000  )
        57           N   tau(  57) = (   0.8125005   0.1804217   0.0000000  )
        58           N   tau(  58) = (   0.7500005   0.2886749   0.0000000  )
        59           N   tau(  59) = (   0.6875005   0.3969280   0.0000000  )
        60           N   tau(  60) = (   0.6250005   0.5051812   0.0000000  )
[...]
       113           B   tau( 113) = (   0.7499995   0.1443379   0.0000000  )
       114           B   tau( 114) = (   0.6874995   0.2525910   0.0000000  )
       115           B   tau( 115) = (   0.6249995   0.3608442   0.0000000  )
       116           B   tau( 116) = (   0.5624995   0.4690974   0.0000000  )
       117           B   tau( 117) = (   0.4999995   0.5773505   0.0000000  )
       118           B   tau( 118) = (   0.4374995   0.6856037   0.0000000  )
       119           B   tau( 119) = (   0.3749995   0.7938569   0.0000000  )
       120           B   tau( 120) = (   0.9374995   0.0360847   0.0000000  )
       121           B   tau( 121) = (   0.8749995   0.1443379   0.0000000  )
       122           B   tau( 122) = (   0.8124995   0.2525910   0.0000000  )
       123           B   tau( 123) = (   0.7499995   0.3608442   0.0000000  )
       124           B   tau( 124) = (   0.6874995   0.4690974   0.0000000  )
       125           B   tau( 125) = (   0.6249995   0.5773505   0.0000000  )
       126           B   tau( 126) = (   0.5624995   0.6856037   0.0000000  )
       127           B   tau( 127) = (   0.4999995   0.7938569   0.0000000  )

   Crystallographic axes

     site n.     atom                  positions (cryst. coord.)
         1           N   tau(   1) = (  0.0416670  0.0833330  0.0000000  )
         2           N   tau(   2) = (  0.0416670  0.2083330  0.0000000  )
         3           N   tau(   3) = (  0.0416670  0.3333330  0.0000000  )
         4           N   tau(   4) = (  0.0416670  0.4583330  0.0000000  )
         5           N   tau(   5) = (  0.0416670  0.5833330  0.0000000  )
         6           N   tau(   6) = (  0.0416670  0.7083330  0.0000000  )
         7           N   tau(   7) = (  0.0416670  0.8333330  0.0000000  )
         8           N   tau(   8) = (  0.0416670  0.9583330  0.0000000  )
         9           N   tau(   9) = (  0.1666670  0.0833330  0.0000000  )
        10           N   tau(  10) = (  0.1666670  0.2083330  0.0000000  )
        11           N   tau(  11) = (  0.1666670  0.3333330  0.0000000  )
        12           N   tau(  12) = (  0.1666670  0.4583330  0.0000000  )
[...]
     atom  114 type  1   force =     0.00000000    0.00000000    0.00000000
     atom  115 type  1   force =     0.00000000    0.00000000    0.00000000
     atom  116 type  1   force =     0.00000000    0.00000000    0.00000000
     atom  117 type  1   force =     0.00000000    0.00000000    0.00000000
     atom  118 type  1   force =     0.00000000    0.00000000    0.00000000
     atom  119 type  1   force =     0.00000000    0.00000000    0.00000000
     atom  120 type  1   force =     0.00000000    0.00000000    0.00000000
     atom  121 type  1   force =     0.00000000    0.00000000    0.00000000
     atom  122 type  1   force =     0.00000000    0.00000000    0.00000000
     atom  123 type  1   force =     0.00000000    0.00000000    0.00000000
     atom  124 type  1   force =     0.00000000    0.00000000    0.00000000
     atom  125 type  1   force =     0.00000000    0.00000000    0.00000000
     atom  126 type  1   force =     0.00000000    0.00000000    0.00000000
     atom  127 type  1   force =     0.00000000    0.00000000    0.00000000
     The Hubbard contrib.    to forces
     atom    1 type  2   force =     0.00000000    0.00000000    0.00000000
     atom    2 type  2   force =     0.00000000    0.00000000    0.00000000
     atom    3 type  2   force =     0.00000000    0.00000000    0.00000000
     atom    4 type  2   force =     0.00000000    0.00000000    0.00000000
     atom    5 type  2   force =     0.00000000    0.00000000    0.00000000
     atom    6 type  2   force =     0.00000000    0.00000000    0.00000000
     atom    7 type  2   force =     0.00000000    0.00000000    0.00000000
     atom    8 type  2   force =     0.00000000    0.00000000    0.00000000
     atom    9 type  2   force =     0.00000000    0.00000000    0.00000000
     atom   10 type  2   force =     0.00000000    0.00000000    0.00000000
     atom   11 type  2   force =     0.00000000    0.00000000    0.00000000
     atom   12 type  2   force =     0.00000000    0.00000000    0.00000000
     atom   13 type  2   force =     0.00000000    0.00000000    0.00000000
     atom   14 type  2   force =     0.00000000    0.00000000    0.00000000
     atom   15 type  2   force =     0.00000000    0.00000000    0.00000000
     atom   16 type  2   force =     0.00000000    0.00000000    0.00000000
     atom   17 type  2   force =     0.00000000    0.00000000    0.00000000
     atom   18 type  2   force =     0.00000000    0.00000000    0.00000000
     atom   19 type  2   force =     0.00000000    0.00000000    0.00000000
     atom   20 type  2   force =     0.00000000    0.00000000    0.00000000
     atom   21 type  2   force =     0.00000000    0.00000000    0.00000000
     atom   22 type  2   force =     0.00000000    0.00000000    0.00000000
     atom   23 type  2   force =     0.00000000    0.00000000    0.00000000
     atom   24 type  2   force =     0.00000000    0.00000000    0.00000000
     atom   25 type  2   force =     0.00000000    0.00000000    0.00000000
     atom   26 type  2   force =     0.00000000    0.00000000    0.00000000
     atom   27 type  2   force =     0.00000000    0.00000000    0.00000000
     atom   28 type  2   force =     0.00000000    0.00000000    0.00000000
     atom   29 type  2   force =     0.00000000    0.00000000    0.00000000
     atom   30 type  2   force =     0.00000000    0.00000000    0.00000000
     atom   31 type  2   force =     0.00000000    0.00000000    0.00000000
     atom   32 type  2   force =     0.00000000    0.00000000    0.00000000
     atom   33 type  2   force =     0.00000000    0.00000000    0.00000000
     atom   34 type  2   force =     0.00000000    0.00000000    0.00000000
     atom   35 type  2   force =     0.00000000    0.00000000    0.00000000
     atom   36 type  2   force =     0.00000000    0.00000000    0.00000000
     atom   37 type  2   force =     0.00000000    0.00000000    0.00000000
     atom   38 type  2   force =     0.00000000    0.00000000    0.00000000
     atom   39 type  2   force =     0.00000000    0.00000000    0.00000000
     atom   40 type  2   force =     0.00000000    0.00000000    0.00000000
     atom   41 type  2   force =     0.00000000    0.00000000    0.00000000
     atom   42 type  2   force =     0.00000000    0.00000000    0.00000000
     atom   43 type  2   force =     0.00000000    0.00000000    0.00000000
     atom   44 type  2   force =     0.00000000    0.00000000    0.00000000
     atom   45 type  2   force =     0.00000000    0.00000000    0.00000000
     atom   46 type  2   force =     0.00000000    0.00000000    0.00000000
     atom   47 type  2   force =     0.00000000    0.00000000    0.00000000
     atom   48 type  2   force =     0.00000000    0.00000000    0.00000000
     atom   49 type  2   force =     0.00000000    0.00000000    0.00000000
     atom   50 type  2   force =     0.00000000    0.00000000    0.00000000
     atom   51 type  2   force =     0.00000000    0.00000000    0.00000000
     atom   52 type  2   force =     0.00000000    0.00000000    0.00000000
     atom   53 type  2   force =     0.00000000    0.00000000    0.00000000
     atom   54 type  2   force =     0.00000000    0.00000000    0.00000000
     atom   55 type  2   force =     0.00000000    0.00000000    0.00000000
     atom   56 type  2   force =     0.00000000    0.00000000    0.00000000
     atom   57 type  2   force =     0.00000000    0.00000000    0.00000000
     atom   58 type  2   force =     0.00000000    0.00000000    0.00000000
     atom   59 type  2   force =     0.00000000    0.00000000    0.00000000
     atom   60 type  2   force =     0.00000000    0.00000000    0.00000000
[...]
     atom  113 type  1   force =     0.00000000    0.00000000    0.00000000
     atom  114 type  1   force =     0.00000000    0.00000000    0.00000000
     atom  115 type  1   force =     0.00000000    0.00000000    0.00000000
     atom  116 type  1   force =     0.00000000    0.00000000    0.00000000
     atom  117 type  1   force =     0.00000000    0.00000000    0.00000000
     atom  118 type  1   force =     0.00000000    0.00000000    0.00000000
     atom  119 type  1   force =     0.00000000    0.00000000    0.00000000
     atom  120 type  1   force =     0.00000000    0.00000000    0.00000000
     atom  121 type  1   force =     0.00000000    0.00000000    0.00000000
     atom  122 type  1   force =     0.00000000    0.00000000    0.00000000
     atom  123 type  1   force =     0.00000000    0.00000000    0.00000000
     atom  124 type  1   force =     0.00000000    0.00000000    0.00000000
     atom  125 type  1   force =     0.00000000    0.00000000    0.00000000
     atom  126 type  1   force =     0.00000000    0.00000000    0.00000000
     atom  127 type  1   force =     0.00000000    0.00000000    0.00000000
     The SCF correction term to forces
     atom    1 type  2   force =     0.00000217   -0.00000030    0.00000000
     atom    2 type  2   force =     0.00000099    0.00000039   -0.00000000
     atom    3 type  2   force =    -0.00000060    0.00000077    0.00000000
     atom    4 type  2   force =     0.00000068   -0.00000024    0.00000000
     atom    5 type  2   force =     0.00000180    0.00000046   -0.00000000
     atom    6 type  2   force =     0.00000035    0.00000051   -0.00000000
     atom    7 type  2   force =    -0.00000125    0.00000132    0.00000000
     atom    8 type  2   force =     0.00000041   -0.00000024   -0.00000001
     atom    9 type  2   force =    -0.00000047   -0.00000031   -0.00000000
     atom   10 type  2   force =     0.00000048   -0.00000108    0.00000000
     atom   11 type  2   force =    -0.00000050   -0.00000079   -0.00000000
     atom   12 type  2   force =    -0.00000181   -0.00000071   -0.00000000
     atom   13 type  2   force =    -0.00000113    0.00000140    0.00000000
     atom   14 type  2   force =     0.00000195    0.00000080   -0.00000000
     atom   15 type  2   force =     0.00000119   -0.00000069    0.00000000
     atom   16 type  2   force =    -0.00000177    0.00000042    0.00000000
     atom   17 type  2   force =    -0.00000185    0.00000003   -0.00000000
     atom   18 type  2   force =    -0.00000030   -0.00000024   -0.00000000
     atom   19 type  2   force =     0.00000013   -0.00000200    0.00000000
     atom   20 type  2   force =    -0.00000105   -0.00000163   -0.00000000
     atom   21 type  2   force =    -0.00000246    0.00000065   -0.00000000
     atom   22 type  2   force =    -0.00000250    0.00000146   -0.00000000
     atom   23 type  2   force =     0.00000031   -0.00000210   -0.00000001
     atom   24 type  2   force =    -0.00000026   -0.00000056   -0.00000000
     atom   25 type  2   force =    -0.00000031   -0.00000058   -0.00000000
     atom   26 type  2   force =    -0.00000053    0.00000296   -0.00000000
     atom   27 type  2   force =     0.00000270   -0.00000335    0.00000000
     atom   28 type  2   force =    -0.00000303   -0.00000253    0.00000000
     atom   29 type  2   force =    -0.00000077    0.00000045   -0.00000000
     atom   30 type  2   force =    -0.00000180    0.00000181   -0.00000000
     atom   31 type  2   force =    -0.00000179    0.00000028   -0.00000000
     atom   32 type  2   force =     0.00000051   -0.00000179   -0.00000000
     atom   33 type  2   force =     0.00000117   -0.00000016   -0.00000001
     atom   34 type  2   force =     0.00000000    0.00000293   -0.00000001
     atom   35 type  2   force =     0.00000101    0.00000289   -0.00000001
     atom   36 type  2   force =     0.00000070    0.00000390    0.00000000
     atom   37 type  2   force =     0.00000090    0.00000170   -0.00000000
     atom   38 type  2   force =    -0.00000029    0.00000192   -0.00000000
     atom   39 type  2   force =     0.00000053   -0.00000047   -0.00000000
     atom   40 type  2   force =     0.00000019    0.00000024   -0.00000000
     atom   41 type  2   force =     0.00000071    0.00000017   -0.00000001
     atom   42 type  2   force =    -0.00000273    0.00000157   -0.00000000
     atom   43 type  2   force =    -0.00000200   -0.00000233    0.00000000
     atom   44 type  2   force =     0.00000422   -0.00000066   -0.00000000
     atom   45 type  2   force =     0.00000179    0.00000088   -0.00000000
     atom   46 type  2   force =     0.00000044    0.00000083   -0.00000000
     atom   47 type  2   force =    -0.00000096    0.00000014   -0.00000000
     atom   48 type  2   force =    -0.00000167   -0.00000027   -0.00000000
     atom   49 type  2   force =    -0.00000078    0.00000046   -0.00000001
     atom   50 type  2   force =     0.00000022   -0.00000071   -0.00000000
     atom   51 type  2   force =    -0.00000253   -0.00000147   -0.00000000
     atom   52 type  2   force =    -0.00000282   -0.00000103   -0.00000000
     atom   53 type  2   force =     0.00000006    0.00000039   -0.00000000
     atom   54 type  2   force =     0.00000117    0.00000012    0.00000000
     atom   55 type  2   force =     0.00000015   -0.00000104   -0.00000000
     atom   56 type  2   force =     0.00000046   -0.00000027   -0.00000000
     atom   57 type  2   force =    -0.00000061    0.00000158   -0.00000000
     atom   58 type  2   force =    -0.00000011   -0.00000030    0.00000000
     atom   59 type  2   force =     0.00000071   -0.00000095    0.00000000
     atom   60 type  2   force =     0.00000034    0.00000057   -0.00000000
[...]
     atom  113 type  1   force =    -0.00000076    0.00000044   -0.00000000
     atom  114 type  1   force =    -0.00000010   -0.00000042   -0.00000000
     atom  115 type  1   force =     0.00000012   -0.00000011   -0.00000000
     atom  116 type  1   force =    -0.00000097   -0.00000025   -0.00000000
     atom  117 type  1   force =    -0.00000050    0.00000048   -0.00000000
     atom  118 type  1   force =     0.00000052    0.00000046    0.00000000
     atom  119 type  1   force =     0.00000059   -0.00000040    0.00000000
     atom  120 type  1   force =     0.00000109   -0.00000063    0.00000000
     atom  121 type  1   force =     0.00000065    0.00000034   -0.00000000
     atom  122 type  1   force =    -0.00000007    0.00000016    0.00000000
     atom  123 type  1   force =    -0.00000015    0.00000018    0.00000000
     atom  124 type  1   force =     0.00000034   -0.00000030   -0.00000000
     atom  125 type  1   force =    -0.00000011    0.00000072    0.00000000
     atom  126 type  1   force =    -0.00000056    0.00000069    0.00000000
     atom  127 type  1   force =     0.00000039   -0.00000031    0.00000000

     Total force =     0.002087     Total SCF correction =     0.000018

     bfgs converged in  22 scf cycles and  21 bfgs steps
     (criteria: energy <  1.0E-05 Ry, force <  1.0E-03 Ry/Bohr)

     End of BFGS Geometry Optimization

     Final energy   =   -1628.0028360609 Ry
Begin final coordinates

ATOMIC_POSITIONS (crystal)
N        0.042649861   0.083674194   0.000000000
N        0.042988092   0.208571109   0.000000000
N        0.042650786   0.333447644   0.000000000
N        0.041880242   0.458462721   0.000000000
N        0.040988933   0.583502441   0.000000000
N        0.040591031   0.708393730   0.000000000
N        0.040665426   0.833258140   0.000000000
N        0.041560373   0.958439641   0.000000000
N        0.168443223   0.085278166   0.000000000
N        0.168785657   0.209897451   0.000000000
N        0.168130831   0.334329243   0.000000000
N        0.166723908   0.459104148   0.000000000
N        0.165793048   0.584072408   0.000000000
N        0.165708704   0.709040323   0.000000000
N        0.165953057   0.834046957   0.000000000
N        0.166741874   0.959334588   0.000000000
N        0.292834299   0.085141327   0.000000000
N        0.295833250   0.212648449   0.000000000
N        0.294475122   0.335898487   0.000000000
N        0.291799893   0.459942603   0.000000000
N        0.290341098   0.584629226   0.000000000
N        0.290574977   0.709425023   0.000000000
N        0.290959677   0.834291310   0.000000000
N        0.291606270   0.959408983   0.000000000
N        0.417243173   0.084242438   0.000000000
N        0.418638616   0.210555482   0.000000000
N        0.425536009   0.342435061   0.000000000
N        0.417430652   0.461867431   0.000000000
N        0.414522215   0.585477785   0.000000000
N        0.415370774   0.709658902   0.000000000
N        0.415927592   0.834206966   0.000000000
N        0.416497559   0.959011081   0.000000000
N        0.542063902   0.082793632   0.000000000
N        0.542706207   0.207408417   0.000000000
N        0.544128401   0.332113460   0.000000000
N        0.538132569   0.582569348   0.000000000
N        0.540057397   0.708200107   0.000000000
N        0.540895852   0.833276106   0.000000000
N        0.541537279   0.958119772   0.000000000
N        0.667154163   0.082393512   0.000000000
N        0.667587901   0.207191418   0.000000000
N        0.668153542   0.331846458   0.000000000
N        0.667886540   0.455871599   0.000000000
N        0.657564939   0.574463991   0.000000000
N        0.664101513   0.705524878   0.000000000
N        0.665670757   0.831869183   0.000000000
N        0.666552356   0.957349228   0.000000000
N        0.792200050   0.082339840   0.000000000
N        0.792594294   0.207405692   0.000000000
N        0.792808568   0.332412099   0.000000000
N        0.792591569   0.457293793   0.000000000
N        0.789444504   0.581361384   0.000000000
N        0.787351537   0.704166750   0.000000000
N        0.790102535   0.831214357   0.000000000
N        0.791428877   0.957011922   0.000000000
N        0.917294475   0.082705511   0.000000000
N        0.917660146   0.207799936   0.000000000
N        0.917606474   0.332845837   0.000000000
N        0.917206354   0.457936098   0.000000000
N        0.915757548   0.582756827   0.000000000
[...]
B        0.834195653   0.165804361   0.000000000
B        0.834273763   0.290888314   0.000000000
B        0.833998947   0.415906522   0.000000000
B        0.832006903   0.540597895   0.000000000
B        0.830656430   0.664328319   0.000000000
B        0.830269837   0.788076426   0.000000000
B        0.832553188   0.914747467   0.000000000
B        0.958932122   0.041067892   0.000000000
B        0.959509695   0.166320497   0.000000000
B        0.959383183   0.291343674   0.000000000
B        0.958779635   0.416353677   0.000000000
B        0.957658768   0.541372311   0.000000000
B        0.956943722   0.666067086   0.000000000
B        0.956808759   0.790520042   0.000000000
B        0.957554673   0.915405516   0.000000000
End final coordinates

     Writing output data file pwscf.save/

     General routines

     Parallel routines

   This run was terminated on:   8: 3:28  26Jan2023

   JOB DONE.